tsp_instances/TSP20/instance54.tsp
NODE_COORD_SECTION
0 126 173
1 154 131
2 83 87
3 53 47
4 50 16
5 50 40
6 147 43
7 171 192
8 35 178
9 39 50
10 49 107
11 96 51
12 160 17
13 17 126
14 111 56
15 12 95
16 107 166
17 18 46
18 93 150
19 124 183
