tsp_instances/TSP20/instance54.opt.tour
TOUR_SECTION
1
17
19
9
14
11
16
18
10
5
6
4
3
12
15
13
7
2
8
20
-1